
maxTime = 336;
%  timeLabels =  ["2017-12-04 00:00:00","2017-12-04 00:30:00","2017-12-04 01:00:00","2017-12-04 01:30:00","2017-12-04 02:00:00","2017-12-04 02:30:00"];

%  minNeeded = array2d(real_blocks, TIME, [ 
%     1,0,0,0,1,0,
%     1,0,0,0,1,0,
%     0,0,0,0,0,0,
%     1,0,0,0,0,0,
%     1,0,0,0,0,0,
%     1,0,0,0,0,0,
%         ]);   

%minNeeded = array2d(BLOCK_BY_COURSE, TIME, [ 10 | b in BLOCK_BY_COURSE, h in TIME]);
minNeeded = array2d(real_blocks, TIME, [ 

2,0,0,2,0,0,0,0,0,0,0,0,1,0,0,2,0,0,3,0,0,0,1,0,0,2,0,1,0,0,0,0,0,0,0,1,1,1,1,2,3,3,2,1,1,4,3,2,2,1,1,2,0,0,0,0,0,0,0,0,0,0,0,1,0,2,2,0,1,1,2,0,1,2,1,1,1,0,1,1,2,1,1,1,2,1,2,3,3,3,3,2,1,3,3,2,3,0,0,1,0,0,0,0,0,0,0,0,1,0,0,2,1,0,2,1,1,1,2,0,1,2,0,1,1,0,1,1,1,1,1,2,2,2,2,3,3,3,3,2,2,4,4,3,2,0,0,1,0,0,0,0,0,0,0,0,1,0,0,2,1,0,2,0,0,0,1,0,0,1,0,0,0,0,0,0,0,0,0,0,0,0,0,1,1,1,1,1,0,3,2,2,3,2,0,0,0,1,0,0,0,0,0,0,0,0,0,0,0,1,2,2,3,2,3,1,1,2,2,3,1,1,2,2,1,1,2,2,2,2,2,2,2,3,2,2,1,3,2,2,2,0,0,1,0,1,0,0,0,0,0,0,1,0,0,0,0,1,2,1,2,2,2,1,2,2,1,2,1,1,1,1,1,1,2,2,2,2,1,2,2,2,2,2,1,2,1,1,0,1,1,1,0,1,0,0,0,0,0,0,1,0,0,0,2,0,3,0,1,0,0,0,0,1,0,1,0,0,0,0,0,0,1,1,1,1,1,1,1,1,2,1,1,2,1,1,1,0,0,1,0,0,0,0,0,0,0,0,1,0,0,1,0,0,2,0,0,0,0,0,0,0,0,0,0,0,0,0,0,0,0,0,0,0,0,0,1,1,0,0,0,1,1,1,0,0,0,1,0,0,0,0,0,0,0,0,1,0,0,1,0,1,2,0,1,0,2,0,0,1,0,0,0,0,0,0,0,0,0,1,1,1,0,1,2,2,1,1,0,1,1,1,1,0,0,1,0,0,0,0,0,0,0,0,1,0,0,1,0,0,2,0,0,0,1,0,0,1,0,0,0,0,0,0,0,0,0,1,1,1,0,1,1,1,1,1,0,1,1,1,0,0,0,1,0,0,0,0,0,0,0,0,1,0,0,1,0,0,2,0,0,0,0,0,0,0,0,0,0,0,0,0,0,0,0,0,0,0,0,0,0,0,0,0,0,0,0,0,1,1,0,0,0,1,0,0,0,0,0,0,0,0,0,0,0,0,1,1,2,1,1,0,0,1,0,2,0,0,0,0,0,0,1,1,1,1,0,1,1,1,0,0,0,0,0,1,1,0,0,0,0,1,0,0,0,0,0,0,0,0,0,0,0,0,1,0,1,1,1,0,0,1,0,1,0,0,0,0,0,0,1,1,1,1,0,0,1,1,1,0,0,0,0,0,0,0,0,0,0,1,0,0,0,0,0,0,1,0,0,0,2,0,2,0,0,0,0,0,0,0,0,0,0,0,0,0,0,0,0,0,0,0,0,0,0,0,0,0,0,0,0,0,7,1,0,6,0,0,0,0,0,0,0,0,5,0,0,6,1,1,10,0,1,1,3,0,1,4,0,1,0,0,0,1,2,1,2,2,2,2,2,6,6,6,4,2,2,9,8,7,6,1,1,5,0,0,0,0,0,0,0,0,3,0,0,5,1,6,8,1,2,3,7,1,1,5,1,4,2,1,2,3,3,2,2,4,5,4,3,6,9,9,8,6,1,8,8,6,7,0,0,5,0,0,0,0,0,0,0,0,4,0,0,6,4,1,8,1,1,4,6,1,2,4,1,1,1,1,1,4,3,2,2,5,5,5,3,6,7,9,8,5,2,9,8,7,3,0,0,5,0,0,0,0,0,0,0,0,4,0,0,7,1,0,8,0,0,0,1,0,0,1,0,0,0,0,0,0,1,0,1,1,1,1,1,2,3,2,2,1,1,4,4,3,7,5,0,0,0,4,0,0,0,0,0,0,0,0,0,0,1,1,6,5,9,5,7,1,3,5,3,9,2,2,5,3,2,2,6,7,6,6,4,5,6,8,5,4,2,6,4,6,5,0,0,2,0,3,0,0,0,0,0,0,2,0,0,0,0,1,6,3,5,5,7,2,4,5,2,5,3,2,2,4,2,2,6,6,6,6,2,4,5,6,5,4,2,4,2,4,0,4,1,2,0,3,0,0,0,0,0,0,4,0,0,0,7,0,9,1,3,0,0,0,1,1,1,2,1,0,1,1,0,1,2,2,3,3,1,2,3,3,3,2,2,2,1,1,19,11,9,4,2,2,1,0,0,1,1,2,2,1,3,5,6,8,11,14,14,14,17,18,18,18,19,19,18,17,20,21,22,24,25,28,30,31,36,37,45,48,54,56,59,56,46,37,24,17,10,5,3,2,1,0,0,1,1,3,3,1,4,6,5,9,12,13,14,14,18,18,18,18,18,18,17,16,18,20,21,22,23,26,27,29,32,33,42,45,51,54,56,54,46,36,26,18,9,5,3,2,1,0,0,1,1,2,4,1,3,6,7,9,12,15,15,16,18,20,20,19,20,18,19,18,20,22,23,23,25,28,29,30,33,35,43,46,51,54,56,54,47,36,23,14,9,5,3,2,1,0,1,1,1,2,4,2,3,6,7,7,12,15,14,15,19,19,20,17,19,17,18,18,21,21,22,24,25,27,28,29,33,34,35,37,43,45,48,44,35,32,25,17,11,6,4,2,1,0,1,1,1,1,4,3,4,6,6,8,11,12,15,15,15,17,17,20,16,19,17,18,18,19,20,20,22,24,24,25,27,28,28,29,30,31,32,31,29,25,23,16,9,6,4,2,1,0,0,1,1,1,2,0,2,5,3,4,7,9,11,11,13,14,15,15,15,13,14,13,15,15,17,17,17,19,20,21,22,22,22,23,25,26,27,26,26,22,14,11,8,4,2,2,1,0,1,1,0,1,2,0,3,5,6,4,7,9,9,12,10,13,14,13,13,13,14,13,15,15,17,17,18,21,22,22,23,24,24,26,28,28,29,25,22,20,1,0,0,1,0,1,0,0,0,0,0,0,1,1,0,2,2,1,4,2,2,2,3,1,2,3,2,3,2,2,2,2,4,3,3,4,3,4,4,5,5,5,3,2,1,2,1,1,0,1,0,1,0,1,0,0,0,0,0,1,1,0,0,1,1,2,4,3,3,3,4,2,3,3,3,3,4,2,4,3,5,4,4,4,4,4,5,6,6,6,4,3,1,1,1,1,1,0,0,1,0,1,0,0,0,0,0,1,1,1,0,2,2,1,4,3,2,3,4,2,3,3,3,3,3,3,4,3,4,3,4,4,4,4,5,5,6,6,4,3,2,2,2,1,0,0,0,1,0,1,0,0,0,0,0,1,1,0,0,2,1,0,4,1,1,1,3,0,1,2,1,1,2,1,2,2,2,2,2,2,2,3,3,4,4,4,2,1,0,1,0,0,2,1,0,0,0,1,0,0,0,1,1,1,0,1,0,1,1,2,3,4,4,3,4,2,2,2,3,4,3,3,4,3,2,3,4,4,4,4,4,3,3,3,3,2,1,2,2,2,2,0,0,0,0,1,0,0,0,1,0,1,0,1,0,1,1,2,3,3,3,3,3,2,2,2,2,2,3,3,3,2,2,2,3,3,4,3,3,2,3,2,2,2,0,1,1,1,0,1,0,0,0,1,0,0,0,0,0,0,0,1,1,0,3,0,3,2,2,1,1,0,0,0,1,1,1,1,2,1,1,1,2,2,2,2,2,1,1,1,1,1,0,1,1,1,37,18,15,11,3,4,2,2,2,3,4,8,10,10,12,15,21,24,36,37,40,38,46,42,46,46,47,45,47,41,48,50,55,54,61,64,70,71,78,79,89,91,97,96,97,94,78,62,42,28,15,13,6,5,2,2,2,3,3,10,11,9,13,15,16,25,37,38,39,36,48,40,44,46,45,44,43,42,48,49,51,52,60,62,67,67,74,78,88,89,94,95,94,91,78,60,45,29,14,14,6,5,2,2,3,3,4,9,14,10,12,17,21,23,37,42,41,42,50,45,50,47,49,45,47,46,52,52,54,56,63,65,70,70,77,77,89,89,95,95,96,92,79,60,39,19,13,14,6,5,2,2,3,3,5,9,12,11,11,17,20,19,37,36,34,35,46,39,44,40,43,39,42,41,47,48,48,49,56,58,62,64,71,72,74,74,80,80,83,74,61,51,47,29,18,12,8,7,2,2,4,5,6,6,9,13,16,15,19,28,33,35,44,40,42,41,41,44,42,46,43,44,44,46,46,45,54,53,56,55,60,55,58,54,55,53,52,53,54,43,42,25,16,12,8,7,2,2,3,4,4,6,6,9,10,14,12,18,26,30,35,34,37,34,38,37,37,36,36,37,40,38,40,39,46,47,50,49,52,48,50,48,48,46,45,46,46,36,26,20,17,10,5,5,2,2,3,4,4,4,7,9,12,12,23,15,27,23,29,30,25,30,31,29,32,32,33,32,36,34,38,36,44,46,49,47,49,48,49,49,49,48,47,43,37,30




















]);   
 
 
 
 
 
% blockName =  ["p_1", "p_2", "p_3", "p_4", "l_1", "l_2", "l_3", "bc_2", "bc_3", "bc_4", "i_2", "i_3", "i_4", "off"];  
% shiftName =  ["a3731000000573uAAA","a3731000000573zAAA","a3731000000573kAAA","a373C000000GvYJQA0","off"];



timeLabels =  ["2017-12-04 00:00:00","2017-12-04 00:30:00","2017-12-04 01:00:00","2017-12-04 01:30:00","2017-12-04 02:00:00","2017-12-04 02:30:00","2017-12-04 03:00:00","2017-12-04 03:30:00","2017-12-04 04:00:00","2017-12-04 04:30:00","2017-12-04 05:00:00","2017-12-04 05:30:00","2017-12-04 06:00:00","2017-12-04 06:30:00","2017-12-04 07:00:00","2017-12-04 07:30:00","2017-12-04 08:00:00","2017-12-04 08:30:00","2017-12-04 09:00:00","2017-12-04 09:30:00","2017-12-04 10:00:00","2017-12-04 10:30:00","2017-12-04 11:00:00","2017-12-04 11:30:00","2017-12-04 12:00:00","2017-12-04 12:30:00","2017-12-04 13:00:00","2017-12-04 13:30:00","2017-12-04 14:00:00","2017-12-04 14:30:00","2017-12-04 15:00:00","2017-12-04 15:30:00","2017-12-04 16:00:00","2017-12-04 16:30:00","2017-12-04 17:00:00","2017-12-04 17:30:00","2017-12-04 18:00:00","2017-12-04 18:30:00","2017-12-04 19:00:00","2017-12-04 19:30:00","2017-12-04 20:00:00","2017-12-04 20:30:00","2017-12-04 21:00:00","2017-12-04 21:30:00","2017-12-04 22:00:00","2017-12-04 22:30:00","2017-12-04 23:00:00","2017-12-04 23:30:00","2017-12-05 00:00:00","2017-12-05 00:30:00","2017-12-05 01:00:00","2017-12-05 01:30:00","2017-12-05 02:00:00","2017-12-05 02:30:00","2017-12-05 03:00:00","2017-12-05 03:30:00","2017-12-05 04:00:00","2017-12-05 04:30:00","2017-12-05 05:00:00","2017-12-05 05:30:00","2017-12-05 06:00:00","2017-12-05 06:30:00","2017-12-05 07:00:00","2017-12-05 07:30:00","2017-12-05 08:00:00","2017-12-05 08:30:00","2017-12-05 09:00:00","2017-12-05 09:30:00","2017-12-05 10:00:00","2017-12-05 10:30:00","2017-12-05 11:00:00","2017-12-05 11:30:00","2017-12-05 12:00:00","2017-12-05 12:30:00","2017-12-05 13:00:00","2017-12-05 13:30:00","2017-12-05 14:00:00","2017-12-05 14:30:00","2017-12-05 15:00:00","2017-12-05 15:30:00","2017-12-05 16:00:00","2017-12-05 16:30:00","2017-12-05 17:00:00","2017-12-05 17:30:00","2017-12-05 18:00:00","2017-12-05 18:30:00","2017-12-05 19:00:00","2017-12-05 19:30:00","2017-12-05 20:00:00","2017-12-05 20:30:00","2017-12-05 21:00:00","2017-12-05 21:30:00","2017-12-05 22:00:00","2017-12-05 22:30:00","2017-12-05 23:00:00","2017-12-05 23:30:00","2017-12-06 00:00:00","2017-12-06 00:30:00","2017-12-06 01:00:00","2017-12-06 01:30:00","2017-12-06 02:00:00","2017-12-06 02:30:00","2017-12-06 03:00:00","2017-12-06 03:30:00","2017-12-06 04:00:00","2017-12-06 04:30:00","2017-12-06 05:00:00","2017-12-06 05:30:00","2017-12-06 06:00:00","2017-12-06 06:30:00","2017-12-06 07:00:00","2017-12-06 07:30:00","2017-12-06 08:00:00","2017-12-06 08:30:00","2017-12-06 09:00:00","2017-12-06 09:30:00","2017-12-06 10:00:00","2017-12-06 10:30:00","2017-12-06 11:00:00","2017-12-06 11:30:00","2017-12-06 12:00:00","2017-12-06 12:30:00","2017-12-06 13:00:00","2017-12-06 13:30:00","2017-12-06 14:00:00","2017-12-06 14:30:00","2017-12-06 15:00:00","2017-12-06 15:30:00","2017-12-06 16:00:00","2017-12-06 16:30:00","2017-12-06 17:00:00","2017-12-06 17:30:00","2017-12-06 18:00:00","2017-12-06 18:30:00","2017-12-06 19:00:00","2017-12-06 19:30:00","2017-12-06 20:00:00","2017-12-06 20:30:00","2017-12-06 21:00:00","2017-12-06 21:30:00","2017-12-06 22:00:00","2017-12-06 22:30:00","2017-12-06 23:00:00","2017-12-06 23:30:00","2017-12-07 00:00:00","2017-12-07 00:30:00","2017-12-07 01:00:00","2017-12-07 01:30:00","2017-12-07 02:00:00","2017-12-07 02:30:00","2017-12-07 03:00:00","2017-12-07 03:30:00","2017-12-07 04:00:00","2017-12-07 04:30:00","2017-12-07 05:00:00","2017-12-07 05:30:00","2017-12-07 06:00:00","2017-12-07 06:30:00","2017-12-07 07:00:00","2017-12-07 07:30:00","2017-12-07 08:00:00","2017-12-07 08:30:00","2017-12-07 09:00:00","2017-12-07 09:30:00","2017-12-07 10:00:00","2017-12-07 10:30:00","2017-12-07 11:00:00","2017-12-07 11:30:00","2017-12-07 12:00:00","2017-12-07 12:30:00","2017-12-07 13:00:00","2017-12-07 13:30:00","2017-12-07 14:00:00","2017-12-07 14:30:00","2017-12-07 15:00:00","2017-12-07 15:30:00","2017-12-07 16:00:00","2017-12-07 16:30:00","2017-12-07 17:00:00","2017-12-07 17:30:00","2017-12-07 18:00:00","2017-12-07 18:30:00","2017-12-07 19:00:00","2017-12-07 19:30:00","2017-12-07 20:00:00","2017-12-07 20:30:00","2017-12-07 21:00:00","2017-12-07 21:30:00","2017-12-07 22:00:00","2017-12-07 22:30:00","2017-12-07 23:00:00","2017-12-07 23:30:00","2017-12-08 00:00:00","2017-12-08 00:30:00","2017-12-08 01:00:00","2017-12-08 01:30:00","2017-12-08 02:00:00","2017-12-08 02:30:00","2017-12-08 03:00:00","2017-12-08 03:30:00","2017-12-08 04:00:00","2017-12-08 04:30:00","2017-12-08 05:00:00","2017-12-08 05:30:00","2017-12-08 06:00:00","2017-12-08 06:30:00","2017-12-08 07:00:00","2017-12-08 07:30:00","2017-12-08 08:00:00","2017-12-08 08:30:00","2017-12-08 09:00:00","2017-12-08 09:30:00","2017-12-08 10:00:00","2017-12-08 10:30:00","2017-12-08 11:00:00","2017-12-08 11:30:00","2017-12-08 12:00:00","2017-12-08 12:30:00","2017-12-08 13:00:00","2017-12-08 13:30:00","2017-12-08 14:00:00","2017-12-08 14:30:00","2017-12-08 15:00:00","2017-12-08 15:30:00","2017-12-08 16:00:00","2017-12-08 16:30:00","2017-12-08 17:00:00","2017-12-08 17:30:00","2017-12-08 18:00:00","2017-12-08 18:30:00","2017-12-08 19:00:00","2017-12-08 19:30:00","2017-12-08 20:00:00","2017-12-08 20:30:00","2017-12-08 21:00:00","2017-12-08 21:30:00","2017-12-08 22:00:00","2017-12-08 22:30:00","2017-12-08 23:00:00","2017-12-08 23:30:00","2017-12-09 00:00:00","2017-12-09 00:30:00","2017-12-09 01:00:00","2017-12-09 01:30:00","2017-12-09 02:00:00","2017-12-09 02:30:00","2017-12-09 03:00:00","2017-12-09 03:30:00","2017-12-09 04:00:00","2017-12-09 04:30:00","2017-12-09 05:00:00","2017-12-09 05:30:00","2017-12-09 06:00:00","2017-12-09 06:30:00","2017-12-09 07:00:00","2017-12-09 07:30:00","2017-12-09 08:00:00","2017-12-09 08:30:00","2017-12-09 09:00:00","2017-12-09 09:30:00","2017-12-09 10:00:00","2017-12-09 10:30:00","2017-12-09 11:00:00","2017-12-09 11:30:00","2017-12-09 12:00:00","2017-12-09 12:30:00","2017-12-09 13:00:00","2017-12-09 13:30:00","2017-12-09 14:00:00","2017-12-09 14:30:00","2017-12-09 15:00:00","2017-12-09 15:30:00","2017-12-09 16:00:00","2017-12-09 16:30:00","2017-12-09 17:00:00","2017-12-09 17:30:00","2017-12-09 18:00:00","2017-12-09 18:30:00","2017-12-09 19:00:00","2017-12-09 19:30:00","2017-12-09 20:00:00","2017-12-09 20:30:00","2017-12-09 21:00:00","2017-12-09 21:30:00","2017-12-09 22:00:00","2017-12-09 22:30:00","2017-12-09 23:00:00","2017-12-09 23:30:00","2017-12-10 00:00:00","2017-12-10 00:30:00","2017-12-10 01:00:00","2017-12-10 01:30:00","2017-12-10 02:00:00","2017-12-10 02:30:00","2017-12-10 03:00:00","2017-12-10 03:30:00","2017-12-10 04:00:00","2017-12-10 04:30:00","2017-12-10 05:00:00","2017-12-10 05:30:00","2017-12-10 06:00:00","2017-12-10 06:30:00","2017-12-10 07:00:00","2017-12-10 07:30:00","2017-12-10 08:00:00","2017-12-10 08:30:00","2017-12-10 09:00:00","2017-12-10 09:30:00","2017-12-10 10:00:00","2017-12-10 10:30:00","2017-12-10 11:00:00","2017-12-10 11:30:00","2017-12-10 12:00:00","2017-12-10 12:30:00","2017-12-10 13:00:00","2017-12-10 13:30:00","2017-12-10 14:00:00","2017-12-10 14:30:00","2017-12-10 15:00:00","2017-12-10 15:30:00","2017-12-10 16:00:00","2017-12-10 16:30:00","2017-12-10 17:00:00","2017-12-10 17:30:00","2017-12-10 18:00:00","2017-12-10 18:30:00","2017-12-10 19:00:00","2017-12-10 19:30:00","2017-12-10 20:00:00","2017-12-10 20:30:00","2017-12-10 21:00:00","2017-12-10 21:30:00","2017-12-10 22:00:00","2017-12-10 22:30:00","2017-12-10 23:00:00","2017-12-10 23:30:00"];